solution status: optimal solution found
objective value:                                   57
shell_j_thing.thing.chamber[0].thingy.r4c                    1 	(obj:0)
shell_j_thing.thing.chamber[2].thingy.v1                    1 	(obj:0)
shell_j_thing.horiz_ctrl_hole                       1 	(obj:0)
shell_j_thing.wash_ctrl_hole                        1 	(obj:0)
shell_j_thing.waste_ctrl_hole                       1 	(obj:0)
shell_j_$_122__9                                    1 	(obj:0)
shell_j_thing.thing.chamber[0].thingy.v2                    1 	(obj:0)
shell_j_thing.dead_end_ctrl_hole                    1 	(obj:0)
shell_j_thing.thing.chamber[1].thingy.v1                    1 	(obj:0)
shell_j_$_96__9                                     1 	(obj:0)
shell_j_thing.thing.chamber[0].thingy.r2c                    1 	(obj:0)
shell_j_thing.bead_ctrl_hole                        1 	(obj:0)
shell_j_thing.collect_flush_hole                    1 	(obj:0)
shell_j_thing.lysis_flush_hole                      1 	(obj:0)
shell_j_thing.thing.chamber[0].thingy.v5                    1 	(obj:0)
shell_j_thing.thing.chamber[0].thingy.v11                    1 	(obj:0)
shell_j_thing.thing.chamber[1].thingy.v11                    1 	(obj:0)
shell_j_thing.elute_flush_hole                      1 	(obj:0)
shell_j_thing.thing.chamber[0].thingy.v9                    1 	(obj:0)
shell_j_thing.thing.chamber[1].thingy.v6                    1 	(obj:0)
shell_j_thing.thing.chamber[2].thingy.v5                    1 	(obj:0)
shell_j_$_147__9                                    1 	(obj:0)
shell_j_thing.thing.chamber[0].thingy.v10                    1 	(obj:0)
shell_j_thing.wash_flush_hole                       1 	(obj:0)
shell_j_$_98__9                                     1 	(obj:0)
shell_j_thing.thing.chamber[2].thingy.v7                    1 	(obj:0)
shell_j_thing.thing.chamber[1].thingy.v9                    1 	(obj:0)
shell_i_$_123__9                                    1 	(obj:0)
shell_j_thing.thing.chamber[2].thingy.v9                    1 	(obj:0)
shell_j_thing.dead_end_flush_hole                    1 	(obj:0)
shell_j_thing.thing.chamber[1].thingy.v8                    1 	(obj:0)
shell_j_thing.thing.chamber[1].thingy.v7                    1 	(obj:0)
shell_j_thing.thing.chamber[0].thingy.r3c                    1 	(obj:0)
shell_j_thing.lysis_ctrl_hole                       1 	(obj:0)
shell_i_thing.waste_flush_hole                      1 	(obj:0)
shell_j_$_148__9                                    1 	(obj:0)
shell_j_thing.thing.chamber[2].thingy.v11                    1 	(obj:0)
shell_j_thing.thing.chamber[1].thingy.v4                    1 	(obj:0)
shell_j_thing.collect_ctrl_hole                     1 	(obj:0)
shell_j_thing.thing.chamber[0].thingy.v3                    1 	(obj:0)
shell_j_thing.thing.chamber[0].thingy.v1                    1 	(obj:0)
shell_j_thing.thing.chamber[0].thingy.v7                    1 	(obj:0)
shell_j_thing.elute_ctrl_hole                       1 	(obj:0)
shell_j_thing.thing.chamber[1].thingy.v5                    1 	(obj:0)
thing.thing.chamber[0].thingy.r4c_y                   11 	(obj:0)
thing.dead_end_ctrl_hole_x                          2 	(obj:0)
thing.thing.chamber[0].thingy.v9_x                    2 	(obj:0)
thing.thing.chamber[0].thingy.v9_y                   11 	(obj:0)
thing.thing.chamber[0].thingy.v9_z                   16 	(obj:0)
thing.dead_end_ctrl_hole_y                         11 	(obj:0)
thing.dead_end_ctrl_hole_z                         17 	(obj:0)
thing.thing.chamber[1].thingy.v6_x                   -3 	(obj:0)
thing.thing.chamber[1].thingy.v6_y                   11 	(obj:0)
thing.thing.chamber[1].thingy.v6_z                   18 	(obj:0)
thing.thing.chamber[2].thingy.v1_x                   -3 	(obj:0)
thing.wash_ctrl_hole_x                             -6 	(obj:0)
thing.thing.chamber[2].thingy.v5_x                   -2 	(obj:0)
thing.thing.chamber[2].thingy.v5_y                   11 	(obj:0)
thing.thing.chamber[2].thingy.v5_z                   17 	(obj:0)
thing.thing.chamber[1].thingy.v1_x                   -2 	(obj:0)
thing.thing.chamber[1].thingy.v1_y                   11 	(obj:0)
$_147__9_x                                          1 	(obj:0)
$_147__9_y                                         11 	(obj:0)
$_147__9_z                                         15 	(obj:0)
thing.thing.chamber[1].thingy.v1_z                   16 	(obj:0)
thing.wash_ctrl_hole_y                             11 	(obj:0)
thing.thing.chamber[0].thingy.v10_x                   -1 	(obj:0)
thing.thing.chamber[0].thingy.v10_y                   11 	(obj:0)
thing.thing.chamber[0].thingy.v10_z                   15 	(obj:0)
thing.wash_ctrl_hole_z                             12 	(obj:0)
$_96__9_x                                           5 	(obj:0)
thing.wash_flush_hole_x                            -6 	(obj:0)
thing.wash_flush_hole_y                            11 	(obj:0)
thing.wash_flush_hole_z                            13 	(obj:0)
$_96__9_y                                          11 	(obj:0)
$_96__9_z                                          21 	(obj:0)
$_98__9_x                                           7 	(obj:0)
$_98__9_y                                          11 	(obj:0)
$_98__9_z                                          22 	(obj:0)
thing.thing.chamber[2].thingy.v1_y                   11 	(obj:0)
thing.thing.chamber[2].thingy.v1_z                   15 	(obj:0)
thing.thing.chamber[2].thingy.v7_x                   -3 	(obj:0)
thing.thing.chamber[2].thingy.v7_y                   11 	(obj:0)
thing.thing.chamber[2].thingy.v7_z                   17 	(obj:0)
thing.thing.chamber[0].thingy.r2c_x                   -5 	(obj:0)
thing.thing.chamber[0].thingy.r2c_y                   11 	(obj:0)
thing.thing.chamber[1].thingy.v9_x                    3 	(obj:0)
thing.thing.chamber[1].thingy.v9_y                   11 	(obj:0)
thing.thing.chamber[1].thingy.v9_z                   17 	(obj:0)
thing.thing.chamber[0].thingy.r2c_z                   18 	(obj:0)
thing.waste_ctrl_hole_x                             5 	(obj:0)
$_123__9_x                                         11 	(obj:0)
$_123__9_y                                          7 	(obj:0)
$_123__9_z                                         22 	(obj:0)
thing.waste_ctrl_hole_y                            11 	(obj:0)
thing.bead_ctrl_hole_x                             -1 	(obj:0)
thing.thing.chamber[2].thingy.v9_x                    3 	(obj:0)
thing.thing.chamber[2].thingy.v9_y                   11 	(obj:0)
thing.thing.chamber[2].thingy.v9_z                   16 	(obj:0)
thing.bead_ctrl_hole_y                             11 	(obj:0)
thing.bead_ctrl_hole_z                             14 	(obj:0)
thing.dead_end_flush_hole_x                        -1 	(obj:0)
thing.dead_end_flush_hole_y                        11 	(obj:0)
thing.dead_end_flush_hole_z                        19 	(obj:0)
thing.waste_ctrl_hole_z                            17 	(obj:0)
thing.thing.chamber[0].thingy.r4c_z                   18 	(obj:0)
thing.thing.chamber[1].thingy.v8_x                    3 	(obj:0)
thing.thing.chamber[1].thingy.v8_y                   11 	(obj:0)
thing.thing.chamber[1].thingy.v8_z                   15 	(obj:0)
thing.collect_flush_hole_x                          7 	(obj:0)
thing.collect_flush_hole_y                         11 	(obj:0)
thing.thing.chamber[1].thingy.v7_x                   -4 	(obj:0)
thing.thing.chamber[1].thingy.v7_y                   11 	(obj:0)
thing.thing.chamber[1].thingy.v7_z                   18 	(obj:0)
thing.collect_flush_hole_z                         23 	(obj:0)
thing.thing.chamber[0].thingy.r4c_x                    3 	(obj:0)
thing.thing.chamber[0].thingy.r3c_x                   -6 	(obj:0)
thing.thing.chamber[0].thingy.r3c_y                   11 	(obj:0)
thing.thing.chamber[0].thingy.r3c_z                   17 	(obj:0)
$_122__9_x                                          7 	(obj:0)
thing.lysis_flush_hole_x                            1 	(obj:0)
thing.lysis_ctrl_hole_x                             1 	(obj:0)
thing.lysis_ctrl_hole_y                            11 	(obj:0)
thing.lysis_ctrl_hole_z                            16 	(obj:0)
thing.lysis_flush_hole_y                           11 	(obj:0)
thing.lysis_flush_hole_z                           19 	(obj:0)
thing.waste_flush_hole_x                           11 	(obj:0)
thing.waste_flush_hole_y                            7 	(obj:0)
thing.waste_flush_hole_z                           23 	(obj:0)
$_122__9_y                                         11 	(obj:0)
$_122__9_z                                         21 	(obj:0)
$_148__9_x                                          1 	(obj:0)
$_148__9_y                                         11 	(obj:0)
$_148__9_z                                         18 	(obj:0)
thing.thing.chamber[0].thingy.v5_x                   -3 	(obj:0)
thing.thing.chamber[0].thingy.v5_y                   11 	(obj:0)
thing.thing.chamber[2].thingy.v11_x                    7 	(obj:0)
thing.thing.chamber[2].thingy.v11_y                   11 	(obj:0)
thing.thing.chamber[2].thingy.v11_z                   19 	(obj:0)
thing.thing.chamber[0].thingy.v5_z                   20 	(obj:0)
thing.horiz_ctrl_hole_x                            -4 	(obj:0)
thing.thing.chamber[1].thingy.v4_x                   -3 	(obj:0)
thing.thing.chamber[1].thingy.v4_y                   11 	(obj:0)
thing.thing.chamber[1].thingy.v4_z                   19 	(obj:0)
thing.horiz_ctrl_hole_y                            11 	(obj:0)
thing.thing.chamber[0].thingy.v11_x                    5 	(obj:0)
thing.collect_ctrl_hole_x                           4 	(obj:0)
thing.collect_ctrl_hole_y                          11 	(obj:0)
thing.collect_ctrl_hole_z                          22 	(obj:0)
thing.thing.chamber[0].thingy.v11_y                   11 	(obj:0)
thing.thing.chamber[0].thingy.v11_z                   18 	(obj:0)
thing.thing.chamber[0].thingy.v3_x                   -4 	(obj:0)
thing.thing.chamber[0].thingy.v3_y                   11 	(obj:0)
thing.thing.chamber[0].thingy.v3_z                   16 	(obj:0)
thing.thing.chamber[0].thingy.v2_x                   -5 	(obj:0)
thing.thing.chamber[0].thingy.v2_y                   11 	(obj:0)
thing.thing.chamber[0].thingy.v1_x                   -3 	(obj:0)
thing.thing.chamber[0].thingy.v1_y                   11 	(obj:0)
thing.thing.chamber[0].thingy.v1_z                   16 	(obj:0)
thing.thing.chamber[1].thingy.v11_x                    7 	(obj:0)
thing.thing.chamber[1].thingy.v11_y                   11 	(obj:0)
thing.thing.chamber[0].thingy.v7_x                   -5 	(obj:0)
thing.thing.chamber[0].thingy.v7_y                   11 	(obj:0)
thing.thing.chamber[0].thingy.v7_z                   17 	(obj:0)
thing.thing.chamber[1].thingy.v11_z                   18 	(obj:0)
thing.thing.chamber[0].thingy.v2_z                   16 	(obj:0)
thing.elute_ctrl_hole_x                            -1 	(obj:0)
thing.elute_ctrl_hole_y                            11 	(obj:0)
thing.elute_ctrl_hole_z                            12 	(obj:0)
thing.horiz_ctrl_hole_z                            17 	(obj:0)
thing.elute_flush_hole_x                           -1 	(obj:0)
thing.thing.chamber[1].thingy.v5_x                   -4 	(obj:0)
thing.thing.chamber[1].thingy.v5_y                   11 	(obj:0)
thing.thing.chamber[1].thingy.v5_z                   19 	(obj:0)
thing.elute_flush_hole_y                           11 	(obj:0)
thing.elute_flush_hole_z                           16 	(obj:0)
x236                                                1 	(obj:1)
x239                                                2 	(obj:1)
x242                                                2 	(obj:1)
x248                                                2 	(obj:1)
x266                                                2 	(obj:1)
x280                                                1 	(obj:1)
x283                                                1 	(obj:1)
x293                                                2 	(obj:1)
x296                                                2 	(obj:1)
x299                                                2 	(obj:1)
x301                                                1 	(obj:1)
x302                                                2 	(obj:1)
x304                                                1 	(obj:1)
x313                                                2 	(obj:1)
x323                                                1 	(obj:1)
x325                                                1 	(obj:1)
x326                                                1 	(obj:1)
x328                                                1 	(obj:1)
x341                                                1 	(obj:1)
x344                                                2 	(obj:1)
x349                                                1 	(obj:1)
x355                                                1 	(obj:1)
x356                                                1 	(obj:1)
x362                                                2 	(obj:1)
x366                                                2 	(obj:1)
x368                                                1 	(obj:1)
x371                                                1 	(obj:1)
x380                                                1 	(obj:1)
x382                                                1 	(obj:1)
x385                                                1 	(obj:1)
x386                                                1 	(obj:1)
x392                                                1 	(obj:1)
x405                                                2 	(obj:1)
x410                                                2 	(obj:1)
x416                                                2 	(obj:1)
x418                                                1 	(obj:1)
x424                                                1 	(obj:1)
x427                                                1 	(obj:1)
x434                                                1 	(obj:1)
x455                                                1 	(obj:1)
x457                                                1 	(obj:1)
x460                                                1 	(obj:1)
